job_count = 20 ;
duration = [|16, 9|18, 7|5, 5|18, 9|3, 1|12, 5|16, 6|12, 6|16, 4|11, 9|12, 6|3, 9|6, 7|7, 2|15, 2|17, 1|13, 3|18, 4|4, 2|3, 9|] ;
machine_count = 2 ;
cost = [|16, 29|14, 28|16, 23|15, 33|14, 36|10, 36|11, 30|16, 21|18, 20|14, 32|15, 38|19, 24|12, 38|17, 39|18, 23|10, 31|17, 26|10, 37|18, 28|17, 33|] ;
deadline = [50, 50, 50, 50, 50, 50, 50, 50, 50, 50, 50, 50, 50, 50, 50, 50, 50, 50, 50, 50] ;
release = [0, 0, 0, 0, 0, 0, 0, 0, 0, 0, 0, 0, 0, 0, 0, 0, 0, 0, 0, 0] ;
resource = [|7, 7|1, 1|3, 3|5, 5|4, 4|4, 4|5, 5|4, 4|1, 1|8, 8|9, 9|7, 7|9, 9|7, 7|1, 1|9, 9|8, 8|8, 8|3, 3|6, 6|] ;
capacities = [10, 10] ;
